&control
  calculation='bands'
  restart_mode='restart',
  prefix='case'
  pseudo_dir = './',
  outdir='./work/'
/
&system
  ibrav=  2, 
  celldm(1) =10.50, 
  nat=  2, 
  ntyp= 2,
  ecutwfc =60.0,
  occupations = 'smearing' ,
  smearing = 'mp' ,
  degauss = 0.01 
/
&electrons
  conv_thr =  1.0d-4
  mixing_beta = 0.7
/
&ions
/
&cell
/
ATOMIC_SPECIES
  Xx1 mix_mass mix.UPF
  As  74.92  As.pbe-n-rrkjus_psl.1.0.0.UPF
ATOMIC_POSITIONS (alat)
  Xx1 0.00 0.00 0.00
  As 0.25 0.25 0.25
K_POINTS {crystal_b}
5
0.0 0.0 0.5 10
0.0 0.0 0.0 10
0.5 0.0 0.0 14
0.0 0.5 0.0 10
0.0 0.0 0.0 1
