&bands
  prefix='case'
  outdir='./work/'
  lsym=.true.
/
