&input
  fildyn='case.dyn', zasr='simple', flfrc='case.fc'
/
