&control
  calculation='nscf'
  restart_mode='restart',
  pseudo_dir = './',
/
&system
  ibrav=  2, 
  celldm(1) =10.50, 
  nat=  2, 
  ntyp= 2,
  ecutwfc =60.0,
  occupations = 'tetrahedra' ,
  smearing = 'mp' ,
  degauss = 0.01 
/
&electrons
  conv_thr =  1.0d-4
  mixing_beta = 0.7
/
&ions
/
&cell
/
ATOMIC_SPECIES
  Xx1   32.32  mix.UPF
  As  74.92  As.pbe-n-rrkjus_psl.1.0.0.UPF
ATOMIC_POSITIONS (alat)
  Xx1 0.00 0.00 0.00
  As 0.25 0.25 0.25
K_POINTS automatic
  4 4 4   1 1 1
